7 10 134
3 2 1 6 1 3 3 6 46 48 64 104 134 
3 1 1 7 1 5 2 8 24 24 64 102 132 
2 4 2 2 3 60 96 96 132 
3 1 2 6 2 7 3 32 64 66 98 98 134 
2 3 1 7 2 46 70 72 92 
2 2 2 5 1 54 74 74 94 
2 3 2 6 3 76 92 100 124 
2 4 1 1 3 26 54 86 110 
18 2 1 4 1 4 1 3 1 3 1 4 2 4 2 6 2 6 2 7 2 7 2 3 2 1 3 1 3 7 3 7 3 6 3 3 3 0 6 6 14 14 26 26 36 36 46 52 54 54 60 60 64 64 66 66 70 70 72 72 76 76 78 78 86 90 92 92 98 98 100 100 104 
12 1 1 7 1 7 1 1 2 6 1 6 1 2 2 5 1 5 1 2 3 5 2 5 2 0 8 8 14 14 22 24 32 32 42 42 48 48 54 54 60 60 72 74 84 84 94 94 102 
